NAME : G1.306305397.tour
COMMENT : Cost = 0_306305397
COMMENT : Found by LKH [Keld Helsgaun] Sun Sep 10 07:53:59 2017
TYPE : TOUR
DIMENSION : 67
TOUR_SECTION
1
15
33
45
51
50
12
64
38
30
24
40
43
3
60
25
46
22
56
32
66
16
48
14
21
58
9
67
20
61
52
31
37
29
18
6
11
7
5
62
27
41
28
36
8
10
59
54
35
53
19
65
17
42
26
57
55
44
63
47
49
34
39
23
2
13
4
-1
EOF
